8597
8597
9081
9227
9248
9297
9507
9507
9709
9709
9709
9709
9709
9709
9709
9709
9709
9709
9879
9892
9892
9892
9892
9892
9892
9908
9908
9908
9908
9908
9908
10064
10100
10100
10100
10100
10107
10107
10107
10107
10107
10107
10107
10107
10107
10107
10107
10107
10109
10109
10109
10109
10109
10109
10109
10109
10109
10109
10109
10109
10109
10109
10109
10109
10110
10110
10110
10110
10110
10110
10110
10110
10110
10110
10110
10110
10110
10110
10110
10110
10110
10110
10110
10110
10110
10110
10110
10110
10110
10110
10110
10110
10110
10110
10110
10110
10110
10110
10110
